100 10
0 0 0 0.6
0 10 6 2.9
0 20 35 3.4
0 30 69 3.1
0 40 100 3.1
0 50 131 3.6
0 60 167 4.7
0 70 214 4.4
0 80 258 4.7
0 90 305 4
1 0 0 0.6
1 10 6 2.9
1 20 35 3.4
1 30 69 3.1
1 40 100 3.1
1 50 131 3.6
1 60 167 4.7
1 70 214 4.4
1 80 258 4.7
1 90 305 4
2 0 0 0.6
2 10 6 2.9
2 20 35 3.4
2 30 69 3.1
2 40 100 3.1
2 50 131 3.6
2 60 167 4.7
2 70 214 4.4
2 80 258 4.7
2 90 305 4
3 0 0 0.6
3 10 6 2.9
3 20 35 3.4
3 30 69 3.1
3 40 100 3.1
3 50 131 3.6
3 60 167 4.7
3 70 214 4.4
3 80 258 4.7
3 90 305 4
4 0 0 0.6
4 10 6 2.9
4 20 35 3.4
4 30 69 3.1
4 40 100 3.1
4 50 131 3.6
4 60 167 4.7
4 70 214 4.4
4 80 258 4.7
4 90 305 4
5 0 0 0.6
5 10 6 2.9
5 20 35 3.4
5 30 69 3.1
5 40 100 3.1
5 50 131 3.6
5 60 167 4.7
5 70 214 4.4
5 80 258 4.7
5 90 305 4
6 0 0 0.6
6 10 6 2.9
6 20 35 3.4
6 30 69 3.1
6 40 100 3.1
6 50 131 3.6
6 60 167 4.7
6 70 214 4.4
6 80 258 4.7
6 90 305 4
7 0 0 0.6
7 10 6 2.9
7 20 35 3.4
7 30 69 3.1
7 40 100 3.1
7 50 131 3.6
7 60 167 4.7
7 70 214 4.4
7 80 258 4.7
7 90 305 4
8 0 0 0.6
8 10 6 2.9
8 20 35 3.4
8 30 69 3.1
8 40 100 3.1
8 50 131 3.6
8 60 167 4.7
8 70 214 4.4
8 80 258 4.7
8 90 305 4
9 0 0 0.6
9 10 6 2.9
9 20 35 3.4
9 30 69 3.1
9 40 100 3.1
9 50 131 3.6
9 60 167 4.7
9 70 214 4.4
9 80 258 4.7
9 90 305 4
10 0 0 0.6
10 10 6 2.9
10 20 35 3.4
10 30 69 3.1
10 40 100 3.1
10 50 131 3.6
10 60 167 4.7
10 70 214 4.4
10 80 258 4.7
10 90 305 4
11 0 0 0.6
11 10 6 2.9
11 20 35 3.4
11 30 69 3.1
11 40 100 3.1
11 50 131 3.6
11 60 167 4.7
11 70 214 4.4
11 80 258 4.7
11 90 305 4
12 0 0 0.6
12 10 6 2.9
12 20 35 3.4
12 30 69 3.1
12 40 100 3.1
12 50 131 3.6
12 60 167 4.7
12 70 214 4.4
12 80 258 4.7
12 90 305 4
13 0 0 0.6
13 10 6 2.9
13 20 35 3.4
13 30 69 3.1
13 40 100 3.1
13 50 131 3.6
13 60 167 4.7
13 70 214 4.4
13 80 258 4.7
13 90 305 4
14 0 0 0.6
14 10 6 2.9
14 20 35 3.4
14 30 69 3.1
14 40 100 3.1
14 50 131 3.6
14 60 167 4.7
14 70 214 4.4
14 80 258 4.7
14 90 305 4
15 0 0 0.6
15 10 6 2.9
15 20 35 3.4
15 30 69 3.1
15 40 100 3.1
15 50 131 3.6
15 60 167 4.7
15 70 214 4.4
15 80 258 4.7
15 90 305 4
16 0 0 0.6
16 10 6 2.9
16 20 35 3.4
16 30 69 3.1
16 40 100 3.1
16 50 131 3.6
16 60 167 4.7
16 70 214 4.4
16 80 258 4.7
16 90 305 4
17 0 0 0.6
17 10 6 2.9
17 20 35 3.4
17 30 69 3.1
17 40 100 3.1
17 50 131 3.6
17 60 167 4.7
17 70 214 4.4
17 80 258 4.7
17 90 305 4
18 0 0 0.6
18 10 6 2.9
18 20 35 3.4
18 30 69 3.1
18 40 100 3.1
18 50 131 3.6
18 60 167 4.7
18 70 214 4.4
18 80 258 4.7
18 90 305 4
19 0 0 0.6
19 10 6 2.9
19 20 35 3.4
19 30 69 3.1
19 40 100 3.1
19 50 131 3.6
19 60 167 4.7
19 70 214 4.4
19 80 258 4.7
19 90 305 4
20 0 0 0.6
20 10 6 2.9
20 20 35 3.4
20 30 69 3.1
20 40 100 3.1
20 50 131 3.6
20 60 167 4.7
20 70 214 4.4
20 80 258 4.7
20 90 305 4
21 0 0 0.6
21 10 6 2.9
21 20 35 3.4
21 30 69 3.1
21 40 100 3.1
21 50 131 3.6
21 60 167 4.7
21 70 214 4.4
21 80 258 4.7
21 90 305 4
22 0 0 0.6
22 10 6 2.9
22 20 35 3.4
22 30 69 3.1
22 40 100 3.1
22 50 131 3.6
22 60 167 4.7
22 70 214 4.4
22 80 258 4.7
22 90 305 4
23 0 0 0.6
23 10 6 2.9
23 20 35 3.4
23 30 69 3.1
23 40 100 3.1
23 50 131 3.6
23 60 167 4.7
23 70 214 4.4
23 80 258 4.7
23 90 305 4
24 0 0 0.6
24 10 6 2.9
24 20 35 3.4
24 30 69 3.1
24 40 100 3.1
24 50 131 3.6
24 60 167 4.7
24 70 214 4.4
24 80 258 4.7
24 90 305 4
25 0 0 0.6
25 10 6 2.9
25 20 35 3.4
25 30 69 3.1
25 40 100 3.1
25 50 131 3.6
25 60 167 4.7
25 70 214 4.4
25 80 258 4.7
25 90 305 4
26 0 0 0.6
26 10 6 2.9
26 20 35 3.4
26 30 69 3.1
26 40 100 3.1
26 50 131 3.6
26 60 167 4.7
26 70 214 4.4
26 80 258 4.7
26 90 305 4
27 0 0 0.6
27 10 6 2.9
27 20 35 3.4
27 30 69 3.1
27 40 100 3.1
27 50 131 3.6
27 60 167 4.7
27 70 214 4.4
27 80 258 4.7
27 90 305 4
28 0 0 0.6
28 10 6 2.9
28 20 35 3.4
28 30 69 3.1
28 40 100 3.1
28 50 131 3.6
28 60 167 4.7
28 70 214 4.4
28 80 258 4.7
28 90 305 4
29 0 0 0.6
29 10 6 2.9
29 20 35 3.4
29 30 69 3.1
29 40 100 3.1
29 50 131 3.6
29 60 167 4.7
29 70 214 4.4
29 80 258 4.7
29 90 305 4
30 0 0 0.6
30 10 6 2.9
30 20 35 3.4
30 30 69 3.1
30 40 100 3.1
30 50 131 3.6
30 60 167 4.7
30 70 214 4.4
30 80 258 4.7
30 90 305 4
31 0 0 0.6
31 10 6 2.9
31 20 35 3.4
31 30 69 3.1
31 40 100 3.1
31 50 131 3.6
31 60 167 4.7
31 70 214 4.4
31 80 258 4.7
31 90 305 4
32 0 0 0.6
32 10 6 2.9
32 20 35 3.4
32 30 69 3.1
32 40 100 3.1
32 50 131 3.6
32 60 167 4.7
32 70 214 4.4
32 80 258 4.7
32 90 305 4
33 0 0 0.6
33 10 6 2.9
33 20 35 3.4
33 30 69 3.1
33 40 100 3.1
33 50 131 3.6
33 60 167 4.7
33 70 214 4.4
33 80 258 4.7
33 90 305 4
34 0 0 0.6
34 10 6 2.9
34 20 35 3.4
34 30 69 3.1
34 40 100 3.1
34 50 131 3.6
34 60 167 4.7
34 70 214 4.4
34 80 258 4.7
34 90 305 4
35 0 0 0.6
35 10 6 2.9
35 20 35 3.4
35 30 69 3.1
35 40 100 3.1
35 50 131 3.6
35 60 167 4.7
35 70 214 4.4
35 80 258 4.7
35 90 305 4
36 0 0 0.6
36 10 6 2.9
36 20 35 3.4
36 30 69 3.1
36 40 100 3.1
36 50 131 3.6
36 60 167 4.7
36 70 214 4.4
36 80 258 4.7
36 90 305 4
37 0 0 0.6
37 10 6 2.9
37 20 35 3.4
37 30 69 3.1
37 40 100 3.1
37 50 131 3.6
37 60 167 4.7
37 70 214 4.4
37 80 258 4.7
37 90 305 4
38 0 0 0.6
38 10 6 2.9
38 20 35 3.4
38 30 69 3.1
38 40 100 3.1
38 50 131 3.6
38 60 167 4.7
38 70 214 4.4
38 80 258 4.7
38 90 305 4
39 0 0 0.6
39 10 6 2.9
39 20 35 3.4
39 30 69 3.1
39 40 100 3.1
39 50 131 3.6
39 60 167 4.7
39 70 214 4.4
39 80 258 4.7
39 90 305 4
40 0 0 0.6
40 10 6 2.9
40 20 35 3.4
40 30 69 3.1
40 40 100 3.1
40 50 131 3.6
40 60 167 4.7
40 70 214 4.4
40 80 258 4.7
40 90 305 4
41 0 0 0.6
41 10 6 2.9
41 20 35 3.4
41 30 69 3.1
41 40 100 3.1
41 50 131 3.6
41 60 167 4.7
41 70 214 4.4
41 80 258 4.7
41 90 305 4
42 0 0 0.6
42 10 6 2.9
42 20 35 3.4
42 30 69 3.1
42 40 100 3.1
42 50 131 3.6
42 60 167 4.7
42 70 214 4.4
42 80 258 4.7
42 90 305 4
43 0 0 0.6
43 10 6 2.9
43 20 35 3.4
43 30 69 3.1
43 40 100 3.1
43 50 131 3.6
43 60 167 4.7
43 70 214 4.4
43 80 258 4.7
43 90 305 4
44 0 0 0.6
44 10 6 2.9
44 20 35 3.4
44 30 69 3.1
44 40 100 3.1
44 50 131 3.6
44 60 167 4.7
44 70 214 4.4
44 80 258 4.7
44 90 305 4
45 0 0 0.6
45 10 6 2.9
45 20 35 3.4
45 30 69 3.1
45 40 100 3.1
45 50 131 3.6
45 60 167 4.7
45 70 214 4.4
45 80 258 4.7
45 90 305 4
46 0 0 0.6
46 10 6 2.9
46 20 35 3.4
46 30 69 3.1
46 40 100 3.1
46 50 131 3.6
46 60 167 4.7
46 70 214 4.4
46 80 258 4.7
46 90 305 4
47 0 0 0.6
47 10 6 2.9
47 20 35 3.4
47 30 69 3.1
47 40 100 3.1
47 50 131 3.6
47 60 167 4.7
47 70 214 4.4
47 80 258 4.7
47 90 305 4
48 0 0 0.6
48 10 6 2.9
48 20 35 3.4
48 30 69 3.1
48 40 100 3.1
48 50 131 3.6
48 60 167 4.7
48 70 214 4.4
48 80 258 4.7
48 90 305 4
49 0 0 0.6
49 10 6 2.9
49 20 35 3.4
49 30 69 3.1
49 40 100 3.1
49 50 131 3.6
49 60 167 4.7
49 70 214 4.4
49 80 258 4.7
49 90 305 4
50 0 0 0.6
50 10 6 2.9
50 20 35 3.4
50 30 69 3.1
50 40 100 3.1
50 50 131 3.6
50 60 167 4.7
50 70 214 4.4
50 80 258 4.7
50 90 305 4
51 0 0 0.6
51 10 6 2.9
51 20 35 3.4
51 30 69 3.1
51 40 100 3.1
51 50 131 3.6
51 60 167 4.7
51 70 214 4.4
51 80 258 4.7
51 90 305 4
52 0 0 0.6
52 10 6 2.9
52 20 35 3.4
52 30 69 3.1
52 40 100 3.1
52 50 131 3.6
52 60 167 4.7
52 70 214 4.4
52 80 258 4.7
52 90 305 4
53 0 0 0.6
53 10 6 2.9
53 20 35 3.4
53 30 69 3.1
53 40 100 3.1
53 50 131 3.6
53 60 167 4.7
53 70 214 4.4
53 80 258 4.7
53 90 305 4
54 0 0 0.6
54 10 6 2.9
54 20 35 3.4
54 30 69 3.1
54 40 100 3.1
54 50 131 3.6
54 60 167 4.7
54 70 214 4.4
54 80 258 4.7
54 90 305 4
55 0 0 0.6
55 10 6 2.9
55 20 35 3.4
55 30 69 3.1
55 40 100 3.1
55 50 131 3.6
55 60 167 4.7
55 70 214 4.4
55 80 258 4.7
55 90 305 4
56 0 0 0.6
56 10 6 2.9
56 20 35 3.4
56 30 69 3.1
56 40 100 3.1
56 50 131 3.6
56 60 167 4.7
56 70 214 4.4
56 80 258 4.7
56 90 305 4
57 0 0 0.6
57 10 6 2.9
57 20 35 3.4
57 30 69 3.1
57 40 100 3.1
57 50 131 3.6
57 60 167 4.7
57 70 214 4.4
57 80 258 4.7
57 90 305 4
58 0 0 0.6
58 10 6 2.9
58 20 35 3.4
58 30 69 3.1
58 40 100 3.1
58 50 131 3.6
58 60 167 4.7
58 70 214 4.4
58 80 258 4.7
58 90 305 4
59 0 0 0.6
59 10 6 2.9
59 20 35 3.4
59 30 69 3.1
59 40 100 3.1
59 50 131 3.6
59 60 167 4.7
59 70 214 4.4
59 80 258 4.7
59 90 305 4
60 0 0 0.6
60 10 6 2.9
60 20 35 3.4
60 30 69 3.1
60 40 100 3.1
60 50 131 3.6
60 60 167 4.7
60 70 214 4.4
60 80 258 4.7
60 90 305 4
61 0 0 0.6
61 10 6 2.9
61 20 35 3.4
61 30 69 3.1
61 40 100 3.1
61 50 131 3.6
61 60 167 4.7
61 70 214 4.4
61 80 258 4.7
61 90 305 4
62 0 0 0.6
62 10 6 2.9
62 20 35 3.4
62 30 69 3.1
62 40 100 3.1
62 50 131 3.6
62 60 167 4.7
62 70 214 4.4
62 80 258 4.7
62 90 305 4
63 0 0 0.6
63 10 6 2.9
63 20 35 3.4
63 30 69 3.1
63 40 100 3.1
63 50 131 3.6
63 60 167 4.7
63 70 214 4.4
63 80 258 4.7
63 90 305 4
64 0 0 0.6
64 10 6 2.9
64 20 35 3.4
64 30 69 3.1
64 40 100 3.1
64 50 131 3.6
64 60 167 4.7
64 70 214 4.4
64 80 258 4.7
64 90 305 4
65 0 0 0.6
65 10 6 2.9
65 20 35 3.4
65 30 69 3.1
65 40 100 3.1
65 50 131 3.6
65 60 167 4.7
65 70 214 4.4
65 80 258 4.7
65 90 305 4
66 0 0 0.6
66 10 6 2.9
66 20 35 3.4
66 30 69 3.1
66 40 100 3.1
66 50 131 3.6
66 60 167 4.7
66 70 214 4.4
66 80 258 4.7
66 90 305 4
67 0 0 0.6
67 10 6 2.9
67 20 35 3.4
67 30 69 3.1
67 40 100 3.1
67 50 131 3.6
67 60 167 4.7
67 70 214 4.4
67 80 258 4.7
67 90 305 4
68 0 0 0.6
68 10 6 2.9
68 20 35 3.4
68 30 69 3.1
68 40 100 3.1
68 50 131 3.6
68 60 167 4.7
68 70 214 4.4
68 80 258 4.7
68 90 305 4
69 0 0 0.6
69 10 6 2.9
69 20 35 3.4
69 30 69 3.1
69 40 100 3.1
69 50 131 3.6
69 60 167 4.7
69 70 214 4.4
69 80 258 4.7
69 90 305 4
70 0 0 0.6
70 10 6 2.9
70 20 35 3.4
70 30 69 3.1
70 40 100 3.1
70 50 131 3.6
70 60 167 4.7
70 70 214 4.4
70 80 258 4.7
70 90 305 4
71 0 0 0.6
71 10 6 2.9
71 20 35 3.4
71 30 69 3.1
71 40 100 3.1
71 50 131 3.6
71 60 167 4.7
71 70 214 4.4
71 80 258 4.7
71 90 305 4
72 0 0 0.6
72 10 6 2.9
72 20 35 3.4
72 30 69 3.1
72 40 100 3.1
72 50 131 3.6
72 60 167 4.7
72 70 214 4.4
72 80 258 4.7
72 90 305 4
73 0 0 0.6
73 10 6 2.9
73 20 35 3.4
73 30 69 3.1
73 40 100 3.1
73 50 131 3.6
73 60 167 4.7
73 70 214 4.4
73 80 258 4.7
73 90 305 4
74 0 0 0.6
74 10 6 2.9
74 20 35 3.4
74 30 69 3.1
74 40 100 3.1
74 50 131 3.6
74 60 167 4.7
74 70 214 4.4
74 80 258 4.7
74 90 305 4
75 0 0 0.6
75 10 6 2.9
75 20 35 3.4
75 30 69 3.1
75 40 100 3.1
75 50 131 3.6
75 60 167 4.7
75 70 214 4.4
75 80 258 4.7
75 90 305 4
76 0 0 0.6
76 10 6 2.9
76 20 35 3.4
76 30 69 3.1
76 40 100 3.1
76 50 131 3.6
76 60 167 4.7
76 70 214 4.4
76 80 258 4.7
76 90 305 4
77 0 0 0.6
77 10 6 2.9
77 20 35 3.4
77 30 69 3.1
77 40 100 3.1
77 50 131 3.6
77 60 167 4.7
77 70 214 4.4
77 80 258 4.7
77 90 305 4
78 0 0 0.6
78 10 6 2.9
78 20 35 3.4
78 30 69 3.1
78 40 100 3.1
78 50 131 3.6
78 60 167 4.7
78 70 214 4.4
78 80 258 4.7
78 90 305 4
79 0 0 0.6
79 10 6 2.9
79 20 35 3.4
79 30 69 3.1
79 40 100 3.1
79 50 131 3.6
79 60 167 4.7
79 70 214 4.4
79 80 258 4.7
79 90 305 4
80 0 0 0.6
80 10 6 2.9
80 20 35 3.4
80 30 69 3.1
80 40 100 3.1
80 50 131 3.6
80 60 167 4.7
80 70 214 4.4
80 80 258 4.7
80 90 305 4
81 0 0 0.6
81 10 6 2.9
81 20 35 3.4
81 30 69 3.1
81 40 100 3.1
81 50 131 3.6
81 60 167 4.7
81 70 214 4.4
81 80 258 4.7
81 90 305 4
82 0 0 0.6
82 10 6 2.9
82 20 35 3.4
82 30 69 3.1
82 40 100 3.1
82 50 131 3.6
82 60 167 4.7
82 70 214 4.4
82 80 258 4.7
82 90 305 4
83 0 0 0.6
83 10 6 2.9
83 20 35 3.4
83 30 69 3.1
83 40 100 3.1
83 50 131 3.6
83 60 167 4.7
83 70 214 4.4
83 80 258 4.7
83 90 305 4
84 0 0 0.6
84 10 6 2.9
84 20 35 3.4
84 30 69 3.1
84 40 100 3.1
84 50 131 3.6
84 60 167 4.7
84 70 214 4.4
84 80 258 4.7
84 90 305 4
85 0 0 0.6
85 10 6 2.9
85 20 35 3.4
85 30 69 3.1
85 40 100 3.1
85 50 131 3.6
85 60 167 4.7
85 70 214 4.4
85 80 258 4.7
85 90 305 4
86 0 0 0.6
86 10 6 2.9
86 20 35 3.4
86 30 69 3.1
86 40 100 3.1
86 50 131 3.6
86 60 167 4.7
86 70 214 4.4
86 80 258 4.7
86 90 305 4
87 0 0 0.6
87 10 6 2.9
87 20 35 3.4
87 30 69 3.1
87 40 100 3.1
87 50 131 3.6
87 60 167 4.7
87 70 214 4.4
87 80 258 4.7
87 90 305 4
88 0 0 0.6
88 10 6 2.9
88 20 35 3.4
88 30 69 3.1
88 40 100 3.1
88 50 131 3.6
88 60 167 4.7
88 70 214 4.4
88 80 258 4.7
88 90 305 4
89 0 0 0.6
89 10 6 2.9
89 20 35 3.4
89 30 69 3.1
89 40 100 3.1
89 50 131 3.6
89 60 167 4.7
89 70 214 4.4
89 80 258 4.7
89 90 305 4
90 0 0 0.6
90 10 6 2.9
90 20 35 3.4
90 30 69 3.1
90 40 100 3.1
90 50 131 3.6
90 60 167 4.7
90 70 214 4.4
90 80 258 4.7
90 90 305 4
91 0 0 0.6
91 10 6 2.9
91 20 35 3.4
91 30 69 3.1
91 40 100 3.1
91 50 131 3.6
91 60 167 4.7
91 70 214 4.4
91 80 258 4.7
91 90 305 4
92 0 0 0.6
92 10 6 2.9
92 20 35 3.4
92 30 69 3.1
92 40 100 3.1
92 50 131 3.6
92 60 167 4.7
92 70 214 4.4
92 80 258 4.7
92 90 305 4
93 0 0 0.6
93 10 6 2.9
93 20 35 3.4
93 30 69 3.1
93 40 100 3.1
93 50 131 3.6
93 60 167 4.7
93 70 214 4.4
93 80 258 4.7
93 90 305 4
94 0 0 0.6
94 10 6 2.9
94 20 35 3.4
94 30 69 3.1
94 40 100 3.1
94 50 131 3.6
94 60 167 4.7
94 70 214 4.4
94 80 258 4.7
94 90 305 4
95 0 0 0.6
95 10 6 2.9
95 20 35 3.4
95 30 69 3.1
95 40 100 3.1
95 50 131 3.6
95 60 167 4.7
95 70 214 4.4
95 80 258 4.7
95 90 305 4
96 0 0 0.6
96 10 6 2.9
96 20 35 3.4
96 30 69 3.1
96 40 100 3.1
96 50 131 3.6
96 60 167 4.7
96 70 214 4.4
96 80 258 4.7
96 90 305 4
97 0 0 0.6
97 10 6 2.9
97 20 35 3.4
97 30 69 3.1
97 40 100 3.1
97 50 131 3.6
97 60 167 4.7
97 70 214 4.4
97 80 258 4.7
97 90 305 4
98 0 0 0.6
98 10 6 2.9
98 20 35 3.4
98 30 69 3.1
98 40 100 3.1
98 50 131 3.6
98 60 167 4.7
98 70 214 4.4
98 80 258 4.7
98 90 305 4
99 0 0 0.6
99 10 6 2.9
99 20 35 3.4
99 30 69 3.1
99 40 100 3.1
99 50 131 3.6
99 60 167 4.7
99 70 214 4.4
99 80 258 4.7
99 90 305 4
